p edge 22 45
e 1 3
e 1 11
e 2 14
e 2 3
e 2 9
e 2 7
e 2 21
e 3 14
e 3 13
e 3 11
e 4 20
e 4 16
e 4 10
e 4 13
e 4 21
e 4 17
e 4 14
e 4 22
e 5 9
e 5 18
e 6 22
e 7 21
e 7 14
e 7 19
e 8 17
e 10 11
e 10 12
e 10 22
e 10 16
e 10 13
e 11 20
e 11 13
e 12 18
e 13 20
e 13 17
e 13 22
e 13 16
e 14 17
e 14 22
e 14 19
e 15 19
e 15 20
e 16 22
e 17 22
e 19 20
